     30      2      9    642     10
     48     40
      4     23     28     20      5     26     18     21     22      8     25     16     10     23     14      6     10     19     27     23     28      0      4     19     25     24      5     26     10     24     19     24     23     12      8     18      1     15      8     24     28     10     22      6      1     10     11      6     24     23     14     27      8      4      6     17     26     27      0      7     24     18     25     20      0     22     13     10     26     29      9     11      8     14     25     15      3     28      0     19     27     25     11      3      8      4     12     23     10      9      0      4     28     11      2     15     21      1     20      5      2     22     13      6     19     24     17     15      6      7      5      8     26      1      4     12     28     25      4     11
     57     90     -7    -29      8    150    109     63    -30    -41     -7     30    -28    -29    110     75      5     27     68    -21     95     15     35     76     19    111     11     66     -9     80
      5     14     14	    240     88      5      6      1      0      0      0      0      0      0      0     11      0      0      0      0      0    114      0    -28      0      0      0      0      0     23      0    -21      0      0     51      0      0     19
      3     15     13	    476    167      3      7      3      0      0      0      0    170      0      0      0      0      0      0      0      0    -37    114      0      0     35      0      0      0      0    -14      0      0      0      0    -56    131      0
      4     13     11	    151     71      4      7      8      0      0      0      0      0     74      0      0     -9      0      0      0    111      0      0      0      0      0      0      0      0      0      0      0      0      0      0      0      0     49
      4     12     10	    181     97      8      9     10      0      0      0      0      0      0     22      0      0      0      0      0      0     87      0      0      0     18      0      0      0      0      0     20      0      0      0      0      0      0
      4     10     10	    374    135      6      6      8      0    170      0      0      0      0     75      0      0      0      0      0    111      0      0      0      0      0      0      0      0      0     55      0    299     16      0      0      0      0
      1     15     15	    288    156      4      9      8      0      0     74      0      0      0     66    200      0      0      0      0      0      0      0     52      0     27      0      0      0      0      0      0      0      0      0      0      0      0
      4     13     15	    166     79      5      6      3      0      0      0     22     75     66      0      0    -16     11      0      0      0      0      0      0      0      0    107      0      0      0      3      0     93      0      0      0      0      0
      4     15     12	    323    162      5      6      2     11      0      0      0      0    200      0      0      0      0      0      0    145      0      0      2    -24      0      0      0      5      0      0    111      0      0      0      0      0      0
      3     15     13	    360    209      4      4      9      0      0     -9      0      0      0    -16      0      0      0      0      0      0    -26    -71      0      0    115    150      0      0      0      0      0      0      0    218      0      0      0
      6     10     10	    324    132      8      9      5      0      0      0      0      0      0     11      0      0      0      0     21     13      0      0      0      0      0      0      0      0      0      0      0    -14      0      0      0      0      0
      6     14     10	    496    128      7      9      2      0      0      0      0      0      0      0      0      0      0      0    -18     97    142      0    181      0      0    289    -20      0      0     87      0    -77      0      0      0      0      0
      4     12     14	    114     80      7      7      5      0      0      0      0      0      0      0      0      0     21    -18      0      0      0      0      0      0      0      0      0      0     65      0      0      0      0      0      0      0      0
      5     15     15	    254     78      9      9      7      0      0    111      0    111      0      0    145      0     13     97      0      0      0    186      0      0      0      0      0      0      0      0      0    124      0      0      0      0      0
      6     13     15	    334    225      7      8      3    114    -37      0     87      0      0      0      0    -26      0    142      0      0      0      0      0     33     -8      0      0      0      0      0      0     11     96      0      0      0      0
      1     15     11	    375     79      1      3      2      0    114      0      0      0      0      0      0    -71      0      0      0    186      0      0      0      0      0      0      0      0      0     71      0      0      0      0      0      0      0
      1     13     11	    444     83      6      7      5    -28      0      0      0      0     52      0      2      0      0    181      0      0      0      0      0      0    165      0      0      0      0    313      0      0      0      0      0    -17      0
      2     12     11	    454    248      7      8      6      0      0      0      0      0      0      0    -24      0      0      0      0      0     33      0      0      0      0      0      0      0      0      0    216      0      0      0      0      0    143
      4     15     10	    410    116      5      8      8      0     35      0     18      0     27      0      0    115      0      0      0      0     -8      0    165      0      0    151    -75      0      0      0      0      0      0      0      0      0      0
      4     12     12	    479     96      8      8      1      0      0      0      0      0      0    107      0    150      0    289      0      0      0      0      0      0    151      0      0      0      0      0      0      0      0    -51      0      0      0
      2     13     14	    422    143      8      9      6      0      0      0      0      0      0      0      0      0      0    -20      0      0      0      0      0      0    -75      0      0      0    -36    261      0      0      0      0      0      0      0
      5     15     10	    425    298      7      7      3      0      0      0      0      0      0      0      5      0      0      0      0      0      0      0      0      0      0      0      0      0      0      0      0      0     94      0      0      0      0
      6     14     14	    274    160      7      8      6     23      0      0      0      0      0      0      0      0      0      0     65      0      0      0      0      0      0      0    -36      0      0      0    184    193      0      0     63      1      0
      2     12     12	    467     80      2      9      8      0    -14      0      0     55      0      3      0      0      0     87      0      0      0     71    313      0      0      0    261      0      0      0      0      0     34      0      0      0      0
      5     15     15	    490    331      6      6      4    -21      0      0     20      0      0      0    111      0      0      0      0      0      0      0      0    216      0      0      0      0    184      0      0      0      0      0      0     30     80
      1     12     10	    387     97      4      8      7      0      0      0      0    299      0     93      0      0    -14    -77      0    124     11      0      0      0      0      0      0      0    193      0      0      0      0      0      0      0      0
      4     11     13	    124     77      4      6      8      0      0      0      0     16      0      0      0      0      0      0      0      0     96      0      0      0      0      0      0     94      0     34      0      0      0      0      0      0      0
      3     12     15	    450    242      3      5      7     51      0      0      0      0      0      0      0    218      0      0      0      0      0      0      0      0      0    -51      0      0      0      0      0      0      0      0      0      0      0
      1     12     12	    371     61      5      9      3      0    -56      0      0      0      0      0      0      0      0      0      0      0      0      0      0      0      0      0      0      0     63      0      0      0      0      0      0    118      0
      1     10     13	    254    117      5      9      5      0    131      0      0      0      0      0      0      0      0      0      0      0      0      0    -17      0      0      0      0      0      1      0     30      0      0      0    118      0      0
      1     12     15	    439     60      2      5      5     19      0     49      0      0      0      0      0      0      0      0      0      0      0      0      0    143      0      0      0      0      0      0     80      0      0      0      0      0      0